c turning on binary mode checking
c parsing input formula with 202048 variables and 780980 clauses
c finished parsing, read 20471236 bytes from proof file
c detected empty clause; start verification via backward checking
c 29824 of 780980 clauses in core                            
c 44170 of 515413 lemmas in core using 357925 resolution steps
c 0 RAT lemmas in core; 3163 redundant literals in core lemmas
s VERIFIED
c verification time: 3.099 seconds
